n_res = 3;
rcap = [25, 21, 96];
rtype = [1, 1, 2];
n_tasks = 16;
modes = [ {1, 2, 3}, {4, 5, 6}, {7, 8, 9}, {10, 11, 12}, {13, 14, 15}, {16, 17, 18}, {19, 20, 21}, {22, 23, 24}, {25, 26, 27}, {28, 29, 30}, {31, 32, 33}, {34, 35, 36}, {37, 38, 39}, {40, 41, 42}, {43, 44, 45}, {46, 47, 48} ];
succ = [ {10, 15}, {4, 6}, {9, 11, 12}, {5, 9}, {10, 11, 12}, {7, 9, 12}, {8, 13}, {10, 16}, {16}, {14}, {13, 15}, {13, 15}, {14, 16}, {}, {}, {} ];
n_opt = 48;
dur = [3, 8, 8, 3, 6, 8, 7, 8, 10, 1, 3, 9, 3, 5, 5, 1, 1, 3, 3, 4, 4, 1, 2, 2, 3, 9, 10, 1, 7, 10, 5, 6, 6, 7, 7, 9, 2, 5, 6, 3, 6, 9, 1, 3, 5, 8, 9, 9];
rreq = [|  8,  5,  5,  9,  6,  2,  7,  7,  5,  9,  7,  7,  8,  3,  5,  9,  6,  2,  7,  4,  2,  8,  7,  7,  8,  8,  8,  6,  5,  5,  7,  4,  5,  7,  6,  2,  8,  8,  6, 10,  5,  4, 10,  9,  9,  4,  3,  3
        |  6,  4,  3,  7,  5,  5,  4,  4,  4,  8,  7,  6, 10,  5,  7, 10, 10,  4, 10,  9, 10,  5,  4,  5,  4,  4,  3,  8,  8,  8,  5,  4,  2,  7,  8,  6,  6,  4,  3,  3,  3,  3,  6,  3,  2,  4,  3,  4
        |  7,  4,  6,  2,  1,  1,  9,  6,  4,  7,  6,  6,  7,  7,  6,  4,  5,  4,  9,  7,  7,  9,  9,  8,  2,  1,  1, 10, 10,  9,  5,  4,  4,  6,  8,  3,  5,  5,  3,  9,  9,  9,  8,  7,  5,  8,  8,  7 |];
